\ LP format - for model browsing. Use MPS format to capture full model detail.
Minimize
  85000 x[1,1,1] + 1.785 x[1,2,1] + 2.941 x[1,3,1] + 4.726 x[1,4,1]
   + 3.332 x[1,5,1] + 5.117 x[1,6,1] + 3.723 x[1,7,1] + 5.508 x[1,8,1]
   + 4.114 x[1,9,1] + 5.899 x[1,10,1] + 1.785 x[2,1,1] + 85000 x[2,2,1]
   + 4.726 x[2,3,1] + 2.941 x[2,4,1] + 5.117 x[2,5,1] + 3.332 x[2,6,1]
   + 5.508 x[2,7,1] + 3.723 x[2,8,1] + 5.899 x[2,9,1] + 4.114 x[2,10,1]
   + 2.941 x[3,1,1] + 4.726 x[3,2,1] + 85000 x[3,3,1] + 1.785 x[3,4,1]
   + 2.941 x[3,5,1] + 4.726 x[3,6,1] + 3.332 x[3,7,1] + 5.117 x[3,8,1]
   + 3.723 x[3,9,1] + 5.508 x[3,10,1] + 4.726 x[4,1,1] + 2.941 x[4,2,1]
   + 1.785 x[4,3,1] + 85000 x[4,4,1] + 4.726 x[4,5,1] + 2.941 x[4,6,1]
   + 5.117 x[4,7,1] + 3.332 x[4,8,1] + 5.508 x[4,9,1] + 3.723 x[4,10,1]
   + 3.332 x[5,1,1] + 5.117 x[5,2,1] + 2.941 x[5,3,1] + 4.726 x[5,4,1]
   + 85000 x[5,5,1] + 1.785 x[5,6,1] + 2.941 x[5,7,1] + 4.726 x[5,8,1]
   + 3.332 x[5,9,1] + 5.117 x[5,10,1] + 5.117 x[6,1,1] + 3.332 x[6,2,1]
   + 4.726 x[6,3,1] + 2.941 x[6,4,1] + 1.785 x[6,5,1] + 85000 x[6,6,1]
   + 4.726 x[6,7,1] + 2.941 x[6,8,1] + 5.117 x[6,9,1] + 3.332 x[6,10,1]
   + 3.723 x[7,1,1] + 5.508 x[7,2,1] + 3.332 x[7,3,1] + 5.117 x[7,4,1]
   + 2.941 x[7,5,1] + 4.726 x[7,6,1] + 85000 x[7,7,1] + 1.785 x[7,8,1]
   + 2.941 x[7,9,1] + 4.726 x[7,10,1] + 5.508 x[8,1,1] + 3.723 x[8,2,1]
   + 5.117 x[8,3,1] + 3.332 x[8,4,1] + 4.726 x[8,5,1] + 2.941 x[8,6,1]
   + 1.785 x[8,7,1] + 85000 x[8,8,1] + 4.726 x[8,9,1] + 2.941 x[8,10,1]
   + 4.114 x[9,1,1] + 5.899 x[9,2,1] + 3.723 x[9,3,1] + 5.508 x[9,4,1]
   + 3.332 x[9,5,1] + 5.117 x[9,6,1] + 2.941 x[9,7,1] + 4.726 x[9,8,1]
   + 85000 x[9,9,1] + 1.785 x[9,10,1] + 5.899 x[10,1,1] + 4.114 x[10,2,1]
   + 5.508 x[10,3,1] + 3.723 x[10,4,1] + 5.117 x[10,5,1] + 3.332 x[10,6,1]
   + 4.726 x[10,7,1] + 2.941 x[10,8,1] + 1.785 x[10,9,1] + 85000 x[10,10,1]
Subject To
 R0: x[1,1,1] + x[1,2,1] + x[1,3,1] + x[1,4,1] + x[1,5,1] + x[1,6,1]
   + x[1,7,1] + x[1,8,1] + x[1,9,1] + x[1,10,1] <= 2
 R1: x[2,1,1] + x[2,2,1] + x[2,3,1] + x[2,4,1] + x[2,5,1] + x[2,6,1]
   + x[2,7,1] + x[2,8,1] + x[2,9,1] + x[2,10,1] <= 2
 R2: x[3,1,1] + x[3,2,1] + x[3,3,1] + x[3,4,1] + x[3,5,1] + x[3,6,1]
   + x[3,7,1] + x[3,8,1] + x[3,9,1] + x[3,10,1] <= 2
 R3: x[4,1,1] + x[4,2,1] + x[4,3,1] + x[4,4,1] + x[4,5,1] + x[4,6,1]
   + x[4,7,1] + x[4,8,1] + x[4,9,1] + x[4,10,1] <= 2
 R4: x[5,1,1] + x[5,2,1] + x[5,3,1] + x[5,4,1] + x[5,5,1] + x[5,6,1]
   + x[5,7,1] + x[5,8,1] + x[5,9,1] + x[5,10,1] <= 2
 R5: x[6,1,1] + x[6,2,1] + x[6,3,1] + x[6,4,1] + x[6,5,1] + x[6,6,1]
   + x[6,7,1] + x[6,8,1] + x[6,9,1] + x[6,10,1] <= 2
 R6: x[7,1,1] + x[7,2,1] + x[7,3,1] + x[7,4,1] + x[7,5,1] + x[7,6,1]
   + x[7,7,1] + x[7,8,1] + x[7,9,1] + x[7,10,1] <= 2
 R7: x[8,1,1] + x[8,2,1] + x[8,3,1] + x[8,4,1] + x[8,5,1] + x[8,6,1]
   + x[8,7,1] + x[8,8,1] + x[8,9,1] + x[8,10,1] <= 2
 R8: x[9,1,1] + x[9,2,1] + x[9,3,1] + x[9,4,1] + x[9,5,1] + x[9,6,1]
   + x[9,7,1] + x[9,8,1] + x[9,9,1] + x[9,10,1] <= 2
 R9: x[10,1,1] + x[10,2,1] + x[10,3,1] + x[10,4,1] + x[10,5,1] + x[10,6,1]
   + x[10,7,1] + x[10,8,1] + x[10,9,1] + x[10,10,1] <= 2
 R10: x[1,1,1] + x[2,1,1] + x[3,1,1] + x[4,1,1] + x[5,1,1] + x[6,1,1]
   + x[7,1,1] + x[8,1,1] + x[9,1,1] + x[10,1,1] <= 2
 R11: x[1,2,1] + x[2,2,1] + x[3,2,1] + x[4,2,1] + x[5,2,1] + x[6,2,1]
   + x[7,2,1] + x[8,2,1] + x[9,2,1] + x[10,2,1] <= 2
 R12: x[1,3,1] + x[2,3,1] + x[3,3,1] + x[4,3,1] + x[5,3,1] + x[6,3,1]
   + x[7,3,1] + x[8,3,1] + x[9,3,1] + x[10,3,1] <= 2
 R13: x[1,4,1] + x[2,4,1] + x[3,4,1] + x[4,4,1] + x[5,4,1] + x[6,4,1]
   + x[7,4,1] + x[8,4,1] + x[9,4,1] + x[10,4,1] <= 2
 R14: x[1,5,1] + x[2,5,1] + x[3,5,1] + x[4,5,1] + x[5,5,1] + x[6,5,1]
   + x[7,5,1] + x[8,5,1] + x[9,5,1] + x[10,5,1] <= 2
 R15: x[1,6,1] + x[2,6,1] + x[3,6,1] + x[4,6,1] + x[5,6,1] + x[6,6,1]
   + x[7,6,1] + x[8,6,1] + x[9,6,1] + x[10,6,1] <= 2
 R16: x[1,7,1] + x[2,7,1] + x[3,7,1] + x[4,7,1] + x[5,7,1] + x[6,7,1]
   + x[7,7,1] + x[8,7,1] + x[9,7,1] + x[10,7,1] <= 2
 R17: x[1,8,1] + x[2,8,1] + x[3,8,1] + x[4,8,1] + x[5,8,1] + x[6,8,1]
   + x[7,8,1] + x[8,8,1] + x[9,8,1] + x[10,8,1] <= 2
 R18: x[1,9,1] + x[2,9,1] + x[3,9,1] + x[4,9,1] + x[5,9,1] + x[6,9,1]
   + x[7,9,1] + x[8,9,1] + x[9,9,1] + x[10,9,1] <= 2
 R19: x[1,10,1] + x[2,10,1] + x[3,10,1] + x[4,10,1] + x[5,10,1] + x[6,10,1]
   + x[7,10,1] + x[8,10,1] + x[9,10,1] + x[10,10,1] <= 2
 R20: x[1,1,1] + x[2,1,1] + x[3,1,1] + x[4,1,1] + x[5,1,1] + x[6,1,1]
   + x[7,1,1] + x[8,1,1] + x[9,1,1] + x[10,1,1] >= -1
 R21: x[1,2,1] + x[2,2,1] + x[3,2,1] + x[4,2,1] + x[5,2,1] + x[6,2,1]
   + x[7,2,1] + x[8,2,1] + x[9,2,1] + x[10,2,1] >= -2
 R22: x[1,3,1] + x[2,3,1] + x[3,3,1] + x[4,3,1] + x[5,3,1] + x[6,3,1]
   + x[7,3,1] + x[8,3,1] + x[9,3,1] + x[10,3,1] >= -1
 R23: x[1,4,1] + x[2,4,1] + x[3,4,1] + x[4,4,1] + x[5,4,1] + x[6,4,1]
   + x[7,4,1] + x[8,4,1] + x[9,4,1] + x[10,4,1] >= -1
 R24: x[1,5,1] + x[2,5,1] + x[3,5,1] + x[4,5,1] + x[5,5,1] + x[6,5,1]
   + x[7,5,1] + x[8,5,1] + x[9,5,1] + x[10,5,1] >= 0
 R25: x[1,6,1] + x[2,6,1] + x[3,6,1] + x[4,6,1] + x[5,6,1] + x[6,6,1]
   + x[7,6,1] + x[8,6,1] + x[9,6,1] + x[10,6,1] >= -1
 R26: x[1,7,1] + x[2,7,1] + x[3,7,1] + x[4,7,1] + x[5,7,1] + x[6,7,1]
   + x[7,7,1] + x[8,7,1] + x[9,7,1] + x[10,7,1] >= 2
 R27: x[1,8,1] + x[2,8,1] + x[3,8,1] + x[4,8,1] + x[5,8,1] + x[6,8,1]
   + x[7,8,1] + x[8,8,1] + x[9,8,1] + x[10,8,1] >= 0
 R28: x[1,9,1] + x[2,9,1] + x[3,9,1] + x[4,9,1] + x[5,9,1] + x[6,9,1]
   + x[7,9,1] + x[8,9,1] + x[9,9,1] + x[10,9,1] >= 0
 R29: x[1,10,1] + x[2,10,1] + x[3,10,1] + x[4,10,1] + x[5,10,1] + x[6,10,1]
   + x[7,10,1] + x[8,10,1] + x[9,10,1] + x[10,10,1] >= -1
 R30: x[5,1,1] + x[5,2,1] + x[5,3,1] + x[5,4,1] + x[5,5,1] + x[5,6,1]
   + x[5,7,1] + x[5,8,1] + x[5,9,1] + x[5,10,1] = 0
 R31: x[7,1,1] + x[7,2,1] + x[7,3,1] + x[7,4,1] + x[7,5,1] + x[7,6,1]
   + x[7,7,1] + x[7,8,1] + x[7,9,1] + x[7,10,1] = 0
 R32: x[8,1,1] + x[8,2,1] + x[8,3,1] + x[8,4,1] + x[8,5,1] + x[8,6,1]
   + x[8,7,1] + x[8,8,1] + x[8,9,1] + x[8,10,1] = 0
 R33: x[9,1,1] + x[9,2,1] + x[9,3,1] + x[9,4,1] + x[9,5,1] + x[9,6,1]
   + x[9,7,1] + x[9,8,1] + x[9,9,1] + x[9,10,1] = 0
 R34: x[1,1,1] + x[1,2,1] + x[1,3,1] + x[1,4,1] + x[1,5,1] + x[1,6,1]
   + x[1,7,1] + x[1,8,1] + x[1,9,1] + x[1,10,1] <= 1
 R35: x[2,1,1] + x[2,2,1] + x[2,3,1] + x[2,4,1] + x[2,5,1] + x[2,6,1]
   + x[2,7,1] + x[2,8,1] + x[2,9,1] + x[2,10,1] <= 2
 R36: x[3,1,1] + x[3,2,1] + x[3,3,1] + x[3,4,1] + x[3,5,1] + x[3,6,1]
   + x[3,7,1] + x[3,8,1] + x[3,9,1] + x[3,10,1] <= 1
 R37: x[4,1,1] + x[4,2,1] + x[4,3,1] + x[4,4,1] + x[4,5,1] + x[4,6,1]
   + x[4,7,1] + x[4,8,1] + x[4,9,1] + x[4,10,1] <= 1
 R38: x[5,1,1] + x[5,2,1] + x[5,3,1] + x[5,4,1] + x[5,5,1] + x[5,6,1]
   + x[5,7,1] + x[5,8,1] + x[5,9,1] + x[5,10,1] <= 0
 R39: x[6,1,1] + x[6,2,1] + x[6,3,1] + x[6,4,1] + x[6,5,1] + x[6,6,1]
   + x[6,7,1] + x[6,8,1] + x[6,9,1] + x[6,10,1] <= 1
 R40: x[7,1,1] + x[7,2,1] + x[7,3,1] + x[7,4,1] + x[7,5,1] + x[7,6,1]
   + x[7,7,1] + x[7,8,1] + x[7,9,1] + x[7,10,1] <= 2
 R41: x[8,1,1] + x[8,2,1] + x[8,3,1] + x[8,4,1] + x[8,5,1] + x[8,6,1]
   + x[8,7,1] + x[8,8,1] + x[8,9,1] + x[8,10,1] <= 0
 R42: x[9,1,1] + x[9,2,1] + x[9,3,1] + x[9,4,1] + x[9,5,1] + x[9,6,1]
   + x[9,7,1] + x[9,8,1] + x[9,9,1] + x[9,10,1] <= 0
 R43: x[10,1,1] + x[10,2,1] + x[10,3,1] + x[10,4,1] + x[10,5,1] + x[10,6,1]
   + x[10,7,1] + x[10,8,1] + x[10,9,1] + x[10,10,1] <= 1
 R44: x[1,1,1] >= 0
 R45: x[1,2,1] >= 0
 R46: x[1,3,1] >= 0
 R47: x[1,4,1] >= 0
 R48: x[1,5,1] >= 0
 R49: x[1,6,1] >= 0
 R50: x[1,7,1] >= 0
 R51: x[1,8,1] >= 0
 R52: x[1,9,1] >= 0
 R53: x[1,10,1] >= 0
 R54: x[2,1,1] >= 0
 R55: x[2,2,1] >= 0
 R56: x[2,3,1] >= 0
 R57: x[2,4,1] >= 0
 R58: x[2,5,1] >= 0
 R59: x[2,6,1] >= 0
 R60: x[2,7,1] >= 0
 R61: x[2,8,1] >= 0
 R62: x[2,9,1] >= 0
 R63: x[2,10,1] >= 0
 R64: x[3,1,1] >= 0
 R65: x[3,2,1] >= 0
 R66: x[3,3,1] >= 0
 R67: x[3,4,1] >= 0
 R68: x[3,5,1] >= 0
 R69: x[3,6,1] >= 0
 R70: x[3,7,1] >= 0
 R71: x[3,8,1] >= 0
 R72: x[3,9,1] >= 0
 R73: x[3,10,1] >= 0
 R74: x[4,1,1] >= 0
 R75: x[4,2,1] >= 0
 R76: x[4,3,1] >= 0
 R77: x[4,4,1] >= 0
 R78: x[4,5,1] >= 0
 R79: x[4,6,1] >= 0
 R80: x[4,7,1] >= 0
 R81: x[4,8,1] >= 0
 R82: x[4,9,1] >= 0
 R83: x[4,10,1] >= 0
 R84: x[5,1,1] >= 0
 R85: x[5,2,1] >= 0
 R86: x[5,3,1] >= 0
 R87: x[5,4,1] >= 0
 R88: x[5,5,1] >= 0
 R89: x[5,6,1] >= 0
 R90: x[5,7,1] >= 0
 R91: x[5,8,1] >= 0
 R92: x[5,9,1] >= 0
 R93: x[5,10,1] >= 0
 R94: x[6,1,1] >= 0
 R95: x[6,2,1] >= 0
 R96: x[6,3,1] >= 0
 R97: x[6,4,1] >= 0
 R98: x[6,5,1] >= 0
 R99: x[6,6,1] >= 0
 R100: x[6,7,1] >= 0
 R101: x[6,8,1] >= 0
 R102: x[6,9,1] >= 0
 R103: x[6,10,1] >= 0
 R104: x[7,1,1] >= 0
 R105: x[7,2,1] >= 0
 R106: x[7,3,1] >= 0
 R107: x[7,4,1] >= 0
 R108: x[7,5,1] >= 0
 R109: x[7,6,1] >= 0
 R110: x[7,7,1] >= 0
 R111: x[7,8,1] >= 0
 R112: x[7,9,1] >= 0
 R113: x[7,10,1] >= 0
 R114: x[8,1,1] >= 0
 R115: x[8,2,1] >= 0
 R116: x[8,3,1] >= 0
 R117: x[8,4,1] >= 0
 R118: x[8,5,1] >= 0
 R119: x[8,6,1] >= 0
 R120: x[8,7,1] >= 0
 R121: x[8,8,1] >= 0
 R122: x[8,9,1] >= 0
 R123: x[8,10,1] >= 0
 R124: x[9,1,1] >= 0
 R125: x[9,2,1] >= 0
 R126: x[9,3,1] >= 0
 R127: x[9,4,1] >= 0
 R128: x[9,5,1] >= 0
 R129: x[9,6,1] >= 0
 R130: x[9,7,1] >= 0
 R131: x[9,8,1] >= 0
 R132: x[9,9,1] >= 0
 R133: x[9,10,1] >= 0
 R134: x[10,1,1] >= 0
 R135: x[10,2,1] >= 0
 R136: x[10,3,1] >= 0
 R137: x[10,4,1] >= 0
 R138: x[10,5,1] >= 0
 R139: x[10,6,1] >= 0
 R140: x[10,7,1] >= 0
 R141: x[10,8,1] >= 0
 R142: x[10,9,1] >= 0
 R143: x[10,10,1] >= 0
Bounds
 x[1,1,1] <= 2
 x[1,2,1] <= 2
 x[1,3,1] <= 2
 x[1,4,1] <= 2
 x[1,5,1] <= 2
 x[1,6,1] <= 2
 x[1,7,1] <= 2
 x[1,8,1] <= 2
 x[1,9,1] <= 2
 x[1,10,1] <= 2
 x[2,1,1] <= 2
 x[2,2,1] <= 2
 x[2,3,1] <= 2
 x[2,4,1] <= 2
 x[2,5,1] <= 2
 x[2,6,1] <= 2
 x[2,7,1] <= 2
 x[2,8,1] <= 2
 x[2,9,1] <= 2
 x[2,10,1] <= 2
 x[3,1,1] <= 2
 x[3,2,1] <= 2
 x[3,3,1] <= 2
 x[3,4,1] <= 2
 x[3,5,1] <= 2
 x[3,6,1] <= 2
 x[3,7,1] <= 2
 x[3,8,1] <= 2
 x[3,9,1] <= 2
 x[3,10,1] <= 2
 x[4,1,1] <= 2
 x[4,2,1] <= 2
 x[4,3,1] <= 2
 x[4,4,1] <= 2
 x[4,5,1] <= 2
 x[4,6,1] <= 2
 x[4,7,1] <= 2
 x[4,8,1] <= 2
 x[4,9,1] <= 2
 x[4,10,1] <= 2
 x[5,1,1] <= 2
 x[5,2,1] <= 2
 x[5,3,1] <= 2
 x[5,4,1] <= 2
 x[5,5,1] <= 2
 x[5,6,1] <= 2
 x[5,7,1] <= 2
 x[5,8,1] <= 2
 x[5,9,1] <= 2
 x[5,10,1] <= 2
 x[6,1,1] <= 2
 x[6,2,1] <= 2
 x[6,3,1] <= 2
 x[6,4,1] <= 2
 x[6,5,1] <= 2
 x[6,6,1] <= 2
 x[6,7,1] <= 2
 x[6,8,1] <= 2
 x[6,9,1] <= 2
 x[6,10,1] <= 2
 x[7,1,1] <= 2
 x[7,2,1] <= 2
 x[7,3,1] <= 2
 x[7,4,1] <= 2
 x[7,5,1] <= 2
 x[7,6,1] <= 2
 x[7,7,1] <= 2
 x[7,8,1] <= 2
 x[7,9,1] <= 2
 x[7,10,1] <= 2
 x[8,1,1] <= 2
 x[8,2,1] <= 2
 x[8,3,1] <= 2
 x[8,4,1] <= 2
 x[8,5,1] <= 2
 x[8,6,1] <= 2
 x[8,7,1] <= 2
 x[8,8,1] <= 2
 x[8,9,1] <= 2
 x[8,10,1] <= 2
 x[9,1,1] <= 2
 x[9,2,1] <= 2
 x[9,3,1] <= 2
 x[9,4,1] <= 2
 x[9,5,1] <= 2
 x[9,6,1] <= 2
 x[9,7,1] <= 2
 x[9,8,1] <= 2
 x[9,9,1] <= 2
 x[9,10,1] <= 2
 x[10,1,1] <= 2
 x[10,2,1] <= 2
 x[10,3,1] <= 2
 x[10,4,1] <= 2
 x[10,5,1] <= 2
 x[10,6,1] <= 2
 x[10,7,1] <= 2
 x[10,8,1] <= 2
 x[10,9,1] <= 2
 x[10,10,1] <= 2
Generals
 x[1,1,1] x[1,2,1] x[1,3,1] x[1,4,1] x[1,5,1] x[1,6,1] x[1,7,1] x[1,8,1]
 x[1,9,1] x[1,10,1] x[2,1,1] x[2,2,1] x[2,3,1] x[2,4,1] x[2,5,1] x[2,6,1]
 x[2,7,1] x[2,8,1] x[2,9,1] x[2,10,1] x[3,1,1] x[3,2,1] x[3,3,1] x[3,4,1]
 x[3,5,1] x[3,6,1] x[3,7,1] x[3,8,1] x[3,9,1] x[3,10,1] x[4,1,1] x[4,2,1]
 x[4,3,1] x[4,4,1] x[4,5,1] x[4,6,1] x[4,7,1] x[4,8,1] x[4,9,1] x[4,10,1]
 x[5,1,1] x[5,2,1] x[5,3,1] x[5,4,1] x[5,5,1] x[5,6,1] x[5,7,1] x[5,8,1]
 x[5,9,1] x[5,10,1] x[6,1,1] x[6,2,1] x[6,3,1] x[6,4,1] x[6,5,1] x[6,6,1]
 x[6,7,1] x[6,8,1] x[6,9,1] x[6,10,1] x[7,1,1] x[7,2,1] x[7,3,1] x[7,4,1]
 x[7,5,1] x[7,6,1] x[7,7,1] x[7,8,1] x[7,9,1] x[7,10,1] x[8,1,1] x[8,2,1]
 x[8,3,1] x[8,4,1] x[8,5,1] x[8,6,1] x[8,7,1] x[8,8,1] x[8,9,1] x[8,10,1]
 x[9,1,1] x[9,2,1] x[9,3,1] x[9,4,1] x[9,5,1] x[9,6,1] x[9,7,1] x[9,8,1]
 x[9,9,1] x[9,10,1] x[10,1,1] x[10,2,1] x[10,3,1] x[10,4,1] x[10,5,1]
 x[10,6,1] x[10,7,1] x[10,8,1] x[10,9,1] x[10,10,1]
End
